Problem:    
Rows:       192
Columns:    65 (48 integer, 48 binary)
Non-zeros:  752
Status:     INTEGER OPTIMAL
Objective:  value = 117.450816 (MINimum)

   No.   Row name        Activity     Lower bound   Upper bound
------ ------------    ------------- ------------- -------------
     1 r.5                   1117.45             0               
     2 r.6                  -955.915      -985.219               
     3 r.7                   117.451             0               
     4 r.8                   53.6193      -969.608               
     5 r.9                   1117.45             0               
     6 r.10                 -975.575       -987.79               
     7 r.11                  117.451             0               
     8 r.12                  53.6193      -978.757               
     9 r.13                  117.451             0               
    10 r.14                 -981.649      -989.914               
    11 r.15                  1117.45             0               
    12 r.16                  -955.69      -981.946               
    13 r.17                  1117.45             0               
    14 r.18                 -987.785      -997.877               
    15 r.19                  117.451             0               
    16 r.20                  12.2151      -996.042               
    17 r.21                  117.451             0               
    18 r.22                  32.6281      -992.458               
    19 r.23                  1117.45             0               
    20 r.24                 -976.896      -985.161               
    21 r.25                  1117.45             0               
    22 r.26                 -998.383      -998.383               
    23 r.27                  117.451             0               
    24 r.28                  14.5671      -982.526               
    25 r.29                  117.451             0               
    26 r.30                  117.451      -985.259               
    27 r.31                  1117.45             0               
    28 r.32                 -882.549       -979.49               
    29 r.33                  1117.45             0               
    30 r.34                 -882.549      -931.514               
    31 r.35                  117.451             0               
    32 r.36                  117.451      -853.609               
    33 r.37                        1             1             = 
    34 r.38                        1             1             = 
    35 r.39                        1             1             = 
    36 r.40                        1             1             = 
    37 r.41                        1             1             = 
    38 r.42                        1             1             = 
    39 r.43                        1             1             = 
    40 r.44                        1             1             = 
    41 r.45                        2             2               
    42 r.46                       -2         -1001               
    43 r.47                 -24.5396       -987.79               
    44 r.48                     1000             2               
    45 r.49                    -1000         -1001               
    46 r.50                  2004.65      -978.757               
    47 r.51                     1001             2               
    48 r.52                    -1001         -1001               
    49 r.53                  969.386      -989.914               
    50 r.54                     1001             2               
    51 r.55                    -1001         -1001               
    52 r.56                  1995.35      -981.946               
    53 r.57                  -968.13      -985.219               
    54 r.58                  41.4043      -969.608               
    55 r.59                  -968.13      -985.219               
    56 r.60                  41.4043      -969.608               
    57 r.61                 -985.219      -985.219               
    58 r.62                   24.315      -969.608               
    59 r.63                  -982.17      -985.219               
    60 r.64                  27.3641      -969.608               
    61 r.65                  68.4864      -985.259               
    62 r.66                 -931.514       -979.49               
    63 r.67                  68.4864      -985.259               
    64 r.68                 -931.514       -979.49               
    65 r.69                 -931.514      -931.514               
    66 r.70                  68.4864      -853.609               
    67 r.71                 -931.514      -931.514               
    68 r.72                  68.4864      -853.609               
    69 r.73                        2             2               
    70 r.74                       -2         -1001               
    71 r.75                  14.7807       14.7807               
    72 r.76                     1000             2               
    73 r.77                    -1000         -1001               
    74 r.78                  2004.65       30.3922               
    75 r.79                     1001             2               
    76 r.80                    -1001         -1001               
    77 r.81                  989.046      -989.914               
    78 r.82                     1001             2               
    79 r.83                    -1001         -1001               
    80 r.84                  1995.35      -981.946               
    81 r.85                  -987.79       -987.79               
    82 r.86                  41.4043      -978.757               
    83 r.87                  -987.79       -987.79               
    84 r.88                  41.4043      -978.757               
    85 r.89                     1001             2               
    86 r.90                    -1001         -1001               
    87 r.91                  2003.32      -992.458               
    88 r.92                     1001             2               
    89 r.93                    -1001         -1001               
    90 r.94                  1974.14      -985.161               
    91 r.95                  -983.84       -987.79               
    92 r.96                  45.3548      -978.757               
    93 r.97                  -983.84       -987.79               
    94 r.98                  45.3548      -978.757               
    95 r.99                  88.1465      -985.259               
    96 r.100                -911.853       -979.49               
    97 r.101                 68.4864      -985.259               
    98 r.102                -931.514       -979.49               
    99 r.103                -911.853      -931.514               
   100 r.104                 88.1465      -853.609               
   101 r.105                -931.514      -931.514               
   102 r.106                 68.4864      -853.609               
   103 r.107                    1001             2               
   104 r.108                   -1001         -1001               
   105 r.109                 3030.61       14.7807               
   106 r.110                    1001             2               
   107 r.111                   -1001         -1001               
   108 r.112                 2004.65       30.3922               
   109 r.113                    1001             2               
   110 r.114                   -1001         -1001               
   111 r.115                 3010.95       12.2098               
   112 r.116                    1001             2               
   113 r.117                   -1001         -1001               
   114 r.118                 2004.65       21.2427               
   115 r.119                    1001             2               
   116 r.120                   -1001         -1001               
   117 r.121                 2998.74      -997.877               
   118 r.122                    1001             2               
   119 r.123                   -1001         -1001               
   120 r.124                 1963.25      -996.042               
   121 r.125                    1000             2               
   122 r.126                   -1000         -1001               
   123 r.127                 3019.16      -992.458               
   124 r.128                       2             2               
   125 r.129                      -2         -1001               
   126 r.130                -25.8605      -985.161               
   127 r.131                -989.914      -989.914               
   128 r.132                -963.955      -981.946               
   129 r.133                -989.914      -989.914               
   130 r.134                -963.955      -981.946               
   131 r.135                 1103.98      -985.259               
   132 r.136                  103.98       -979.49               
   133 r.137                 68.4864      -985.259               
   134 r.138                -931.514       -979.49               
   135 r.139                  103.98      -931.514               
   136 r.140                 1103.98      -853.609               
   137 r.141                -931.514      -931.514               
   138 r.142                 68.4864      -853.609               
   139 r.143                    1001             2               
   140 r.144                   -1001         -1001               
   141 r.145                 1006.14       10.0862               
   142 r.146                    1001             2               
   143 r.147                   -1001         -1001               
   144 r.148                 2032.09       18.0543               
   145 r.149                    1001             2               
   146 r.150                   -1001         -1001               
   147 r.151                 2020.41      -992.458               
   148 r.152                    1001             2               
   149 r.153                   -1001         -1001               
   150 r.154                 2010.89      -985.161               
   151 r.155                -996.049      -997.877               
   152 r.156                 3.95055      -996.042               
   153 r.157                -996.049      -997.877               
   154 r.158                 3.95055      -996.042               
   155 r.159                    1001             2               
   156 r.160                   -1001         -1001               
   157 r.161                 1995.12       12.2098               
   158 r.162                    1001             2               
   159 r.163                   -1001         -1001               
   160 r.164                 2027.36       21.2427               
   161 r.165                    1000             2               
   162 r.166                   -1000         -1001               
   163 r.167                 989.046       10.0862               
   164 r.168                       2             2               
   165 r.169                      -2         -1001               
   166 r.170                 18.0543       18.0543               
   167 r.171                    1001             2               
   168 r.172                   -1001         -1001               
   169 r.173                 1982.91        2.1232               
   170 r.174                    1001             2               
   171 r.175                   -1001         -1001               
   172 r.176                 1985.96         3.958               
   173 r.177                 24.3636      -992.458               
   174 r.178                -985.161      -985.161               
   175 r.179                 24.3636      -992.458               
   176 r.180                -985.161      -985.161               
   177 r.181                 88.1465      -985.259               
   178 r.182                -911.853       -979.49               
   179 r.183                 91.1956      -985.259               
   180 r.184                -908.804       -979.49               
   181 r.185                    1001             2               
   182 r.186                   -1001         -1001               
   183 r.187                    2000      -931.514               
   184 r.188                    1001             2               
   185 r.189                   -1001         -1001               
   186 r.190                    2000      -853.609               
   187 r.191                    1001             2               
   188 r.192                   -1001         -1001               
   189 r.193                    2000       14.7415               
   190 r.194                    1001             2               
   191 r.195                   -1001         -1001               
   192 r.196                    2000       20.5099               

   No. Column name       Activity     Lower bound   Upper bound
------ ------------    ------------- ------------- -------------
     1 tt                    117.451             0               
     2 s_1_1        *              1             0             1 
     3 t_1_1                 68.4864             0               
     4 s_1_7        *              0             0             1 
     5 s_1_8        *              1             0             1 
     6 s_2_1        *              0             0             1 
     7 t_2_1                 68.4864             0               
     8 s_2_7        *              1             0             1 
     9 s_2_8        *              0             0             1 
    10 s_1_2        *              1             0             1 
    11 t_1_2                 88.1465             0               
    12 s_2_2        *              0             0             1 
    13 t_2_2                 68.4864             0               
    14 s_1_3        *              0             0             1 
    15 t_1_3                 1103.98             0               
    16 s_2_3        *              1             0             1 
    17 t_2_3                 68.4864             0               
    18 s_1_4        *              1             0             1 
    19 t_1_4                 105.236             0               
    20 s_2_4        *              0             0             1 
    21 t_2_4                 105.236             0               
    22 s_1_5        *              0             0             1 
    23 t_1_5                 88.1465             0               
    24 s_2_5        *              1             0             1 
    25 t_2_5                 91.1956             0               
    26 s_1_6        *              1             0             1 
    27 t_1_6                 109.186             0               
    28 s_2_6        *              0             0             1 
    29 t_2_6                 109.186             0               
    30 t_1_7                       0             0               
    31 t_2_7                       0             0               
    32 t_1_8                       0             0               
    33 t_2_8                       0             0               
    34 r_1_1_2      *              0             0             1 
    35 u_1_1_2      *              0             0             1 
    36 r_2_1_2      *              1             0             1 
    37 u_2_1_2      *              0             0             1 
    38 r_1_1_3      *              1             0             1 
    39 u_1_1_3      *              0             0             1 
    40 r_2_1_3      *              1             0             1 
    41 u_2_1_3      *              0             0             1 
    42 r_1_2_3      *              1             0             1 
    43 u_1_2_3      *              0             0             1 
    44 r_2_2_3      *              1             0             1 
    45 u_2_2_3      *              0             0             1 
    46 r_1_2_5      *              1             0             1 
    47 u_1_2_5      *              0             0             1 
    48 r_2_2_5      *              1             0             1 
    49 u_2_2_5      *              0             0             1 
    50 r_1_3_4      *              1             0             1 
    51 u_1_3_4      *              0             0             1 
    52 r_2_3_4      *              1             0             1 
    53 u_2_3_4      *              0             0             1 
    54 r_1_3_5      *              1             0             1 
    55 u_1_3_5      *              0             0             1 
    56 r_2_3_5      *              0             0             1 
    57 u_2_3_5      *              0             0             1 
    58 r_1_4_5      *              1             0             1 
    59 u_1_4_5      *              0             0             1 
    60 r_2_4_5      *              1             0             1 
    61 u_2_4_5      *              0             0             1 
    62 r_1_7_8      *              1             0             1 
    63 u_1_7_8      *              0             0             1 
    64 r_2_7_8      *              1             0             1 
    65 u_2_7_8      *              0             0             1 

Integer feasibility conditions:

KKT.PE: max.abs.err = 4.55e-13 on row 49
        max.rel.err = 1.10e-16 on row 49
        High quality

KKT.PB: max.abs.err = 1.14e-13 on row 22
        max.rel.err = 2.25e-16 on row 71
        High quality

End of output
